27
20
0 23 24 25 26
1 22 24 25 26
2 22 23 24 25 26
3 20 22 23 24 25 26
4 22 25 26
5 22 23 24 25 26
6 23 26
7 22 23 25 26
8 21 22 24 26
9 22 24 26
10 20 22 24 25
11 25
12 21 22 23 24 26
13
14 20
15 25
16 20 21 23
17 23 24
18 23
19
